certificates/rado_a13_c141_N25.cnf
c Rad2 upper bound instance: x1 + 13*x2 - x3 = 141, interval [1,25]
p cnf 25 96
1 3 11 0
-1 -3 -11 0
1 12 16 0
-1 -12 -16 0
2 4 11 0
-2 -4 -11 0
2 12 17 0
-2 -12 -17 0
3 5 11 0
-3 -5 -11 0
3 12 18 0
-3 -12 -18 0
4 6 11 0
-4 -6 -11 0
4 12 19 0
-4 -12 -19 0
5 7 11 0
-5 -7 -11 0
5 12 20 0
-5 -12 -20 0
6 8 11 0
-6 -8 -11 0
6 12 21 0
-6 -12 -21 0
7 9 11 0
-7 -9 -11 0
7 12 22 0
-7 -12 -22 0
8 10 11 0
-8 -10 -11 0
8 12 23 0
-8 -12 -23 0
9 11 0
-9 -11 0
9 12 24 0
-9 -12 -24 0
10 11 12 0
-10 -11 -12 0
10 12 25 0
-10 -12 -25 0
11 13 0
-11 -13 0
1 10 12 0
-1 -10 -12 0
11 12 14 0
-11 -12 -14 0
2 10 13 0
-2 -10 -13 0
11 13 15 0
-11 -13 -15 0
3 10 14 0
-3 -10 -14 0
11 14 16 0
-11 -14 -16 0
4 10 15 0
-4 -10 -15 0
11 15 17 0
-11 -15 -17 0
5 10 16 0
-5 -10 -16 0
11 16 18 0
-11 -16 -18 0
6 10 17 0
-6 -10 -17 0
11 17 19 0
-11 -17 -19 0
7 10 18 0
-7 -10 -18 0
11 18 20 0
-11 -18 -20 0
8 10 19 0
-8 -10 -19 0
11 19 21 0
-11 -19 -21 0
9 10 20 0
-9 -10 -20 0
11 20 22 0
-11 -20 -22 0
10 21 0
-10 -21 0
11 21 23 0
-11 -21 -23 0
10 11 22 0
-10 -11 -22 0
11 22 24 0
-11 -22 -24 0
10 12 23 0
-10 -12 -23 0
11 23 25 0
-11 -23 -25 0
10 13 24 0
-10 -13 -24 0
1 9 25 0
-1 -9 -25 0
10 14 25 0
-10 -14 -25 0
