certificates/rado_a13_c141_N25.drat
11 -24 0
12 23 -11 0
-11 -25 0
10 -25 0
-25 0
12 0
-11 0
9 0
13 0
23 0
-24 0
-8 0
-10 0
22 0
6 0
0
